--- Job proy_final_F.gms Start 05/27/25 15:48:01 48.6.1 67fbb04b LEX-LEG x86 64bit/Linux
--- Applying:
    /opt/gams/gams48.6_linux_x64_64_sfx/gmsprmun.txt
    /home/alaiinx/.config/GAMS/gamsconfig.yaml
--- GAMS Parameters defined
    Input /home/alaiinx/codigos/proy_gams/proy_final/proy_final_F.gms
    PageSize 0
    ScrDir /home/alaiinx/codigos/proy_gams/proy_final/225a/
    SysDir /opt/gams/gams48.6_linux_x64_64_sfx/
    LogOption 3
    ErrMsg 1
    ErrorLog 99
    IDE 1
    LstTitleLeftAligned 1
Licensee: Academic User                                  G250215+0003Ac-GEN
          a01659147@tec.mx                                        CLA106887
          /home/alaiinx/.local/share/GAMS/gamslice.txt
          node:91783801 v:2                                                
          Community license for demonstration and instructional purposes only
Processor information: 1 socket(s), 10 core(s), and 16 thread(s) available
GAMS 48.6.1   Copyright (C) 1987-2025 GAMS Development. All rights reserved
--- Starting compilation
--- proy_final_F.gms(140) 2 Mb
--- Starting execution: elapsed 0:00:00.016
--- Generating LP model Genero_X
--- proy_final_F.gms(140) 3 Mb
---   101 rows  90 columns  756 non-zeroes
--- Range statistics (absolute non-zero finite values)
--- RHS       [min, max] : [ 3.000E-02, 1.000E+01] - Zero values observed as well
--- Bound     [min, max] : [        NA,        NA] - Zero values observed as well
--- Matrix    [min, max] : [ 1.000E+00, 1.000E+01]
--- Executing CPLEX (Solvelink=2): elapsed 0:00:00.028

IBM ILOG CPLEX   48.6.1 67fbb04b Jan 23, 2025          LEG x86 64bit/Linux    

*** This solver runs with a community license. No commercial use.
--- GMO setup time: 0.00s
--- GMO memory 0.52 Mb (peak 0.52 Mb)
--- Dictionary memory 0.00 Mb
--- Cplex 22.1.1.0 link memory 0.00 Mb (peak 0.01 Mb)
--- Starting Cplex

Version identifier: 22.1.1.0 | 2022-11-28 | 9160aff4d
CPXPARAM_Advance                                 0
CPXPARAM_MIP_Display                             4
CPXPARAM_MIP_Pool_Capacity                       0
CPXPARAM_MIP_Tolerances_AbsMIPGap                0
Tried aggregator 1 time.
LP Presolve eliminated 26 rows and 1 columns.
Reduced LP has 74 rows, 89 columns, and 653 nonzeros.
Presolve time = 0.00 sec. (0.19 ticks)
Initializing dual steep norms . . .

Iteration log . . .
Iteration:     1   Dual objective     =             0.000000

--- LP status (1): optimal.
--- Cplex Time: 0.00sec (det. 0.74 ticks)


Optimal solution found
Objective:           29.144286

--- Reading solution for model Genero_X
*** Status: Normal completion
--- Job proy_final_F.gms Stop 05/27/25 15:48:01 elapsed 0:00:00.050
